%chk=h2o_opt_freq.chk
# opt freq hf/3-21g geom=connectivity Pop=Full Symmetry=On

Title Card Required

0 1
 O1
 H2 1 r2
 H3 1 r3 2 a3

Variables:
r2 0.9687
r3 0.9687
a3 104.5
