%chk=h2o_opt_freq.chk
# opt freq hf/3-21g geom=connectivity Pop=Full Symmetry=On

Title Card Required

0 1
 O                  1.58707867    1.12359549    0.00000000
 H                  2.54707867    1.12359549    0.00000000
 H                  1.26662408    2.02853132    0.00000000

 1 2 1.0 3 1.0
 2
 3
